problems/csplib-prob015/SchursLemma-models/noch/O2/lingeling/model_1_2-4-13-solution000001.eprime-solution
language ESSENCE' 1.0

letting boxes_PartitionAsSet_ExplicitR6_ExplicitVarSizeWithDummy be
        [[1, 3, 7, 9, 11, 13, 14, 14, 14, 14, 14, 14, 14; int(1..13)],
         [2, 14, 14, 14, 14, 14, 14, 14, 14, 14, 14, 14, 14; int(1..13)],
         [4, 14, 14, 14, 14, 14, 14, 14, 14, 14, 14, 14, 14; int(1..13)],
         [5, 6, 8, 10, 12, 14, 14, 14, 14, 14, 14, 14, 14; int(1..13)]; int(1..4)]
